c "random instance"
p edges 150 1143
e 1 43
e 1 44
e 1 68
e 1 73
e 1 76
e 1 82
e 1 99
e 1 106
e 1 111
e 2 5
e 2 12
e 2 14
e 2 24
e 2 27
e 2 37
e 2 48
e 2 68
e 2 69
e 2 70
e 2 71
e 2 74
e 2 86
e 2 93
e 2 95
e 2 99
e 2 100
e 2 101
e 2 104
e 2 108
e 2 113
e 2 114
e 2 139
e 2 140
e 3 14
e 3 21
e 3 25
e 3 40
e 3 46
e 3 47
e 3 50
e 3 53
e 3 59
e 3 68
e 3 94
e 3 100
e 3 127
e 3 135
e 4 10
e 4 30
e 4 51
e 4 52
e 4 53
e 4 59
e 4 60
e 4 71
e 4 75
e 4 89
e 4 114
e 4 119
e 4 136
e 4 139
e 5 9
e 5 14
e 5 28
e 5 29
e 5 30
e 5 32
e 5 33
e 5 39
e 5 62
e 5 65
e 5 88
e 5 99
e 5 106
e 5 119
e 5 132
e 5 149
e 6 23
e 6 28
e 6 69
e 6 104
e 6 105
e 6 114
e 6 134
e 6 146
e 6 148
e 7 11
e 7 18
e 7 23
e 7 25
e 7 30
e 7 39
e 7 43
e 7 59
e 7 63
e 7 65
e 7 69
e 7 87
e 7 99
e 7 112
e 7 126
e 7 149
e 8 12
e 8 22
e 8 27
e 8 28
e 8 57
e 8 74
e 8 77
e 8 97
e 8 99
e 8 128
e 8 135
e 8 139
e 8 145
e 9 22
e 9 51
e 9 53
e 9 69
e 9 75
e 9 83
e 9 86
e 9 89
e 9 90
e 9 93
e 9 105
e 9 139
e 9 142
e 10 11
e 10 13
e 10 20
e 10 31
e 10 33
e 10 39
e 10 43
e 10 57
e 10 63
e 10 82
e 10 88
e 10 89
e 10 104
e 10 106
e 10 107
e 10 112
e 10 144
e 11 16
e 11 28
e 11 35
e 11 42
e 11 55
e 11 60
e 11 65
e 11 74
e 11 85
e 11 102
e 11 112
e 11 115
e 11 117
e 11 122
e 11 124
e 11 139
e 12 15
e 12 16
e 12 23
e 12 40
e 12 41
e 12 46
e 12 50
e 12 58
e 12 67
e 12 72
e 12 76
e 12 84
e 12 90
e 12 99
e 12 102
e 12 113
e 12 115
e 12 125
e 12 137
e 13 15
e 13 19
e 13 23
e 13 28
e 13 31
e 13 34
e 13 78
e 13 111
e 13 117
e 13 135
e 13 139
e 13 144
e 14 28
e 14 54
e 14 70
e 14 81
e 14 83
e 14 109
e 14 110
e 14 118
e 14 125
e 14 129
e 14 134
e 14 139
e 14 145
e 14 146
e 15 28
e 15 34
e 15 40
e 15 53
e 15 57
e 15 61
e 15 71
e 15 73
e 15 74
e 15 76
e 15 101
e 15 116
e 15 141
e 16 28
e 16 34
e 16 62
e 16 81
e 16 82
e 16 83
e 16 87
e 16 89
e 16 98
e 16 99
e 16 106
e 16 134
e 16 142
e 16 150
e 17 44
e 17 48
e 17 68
e 17 72
e 17 80
e 17 87
e 17 88
e 17 94
e 17 109
e 17 120
e 17 124
e 17 127
e 17 150
e 18 27
e 18 30
e 18 35
e 18 47
e 18 62
e 18 63
e 18 76
e 18 93
e 18 94
e 18 95
e 18 107
e 18 117
e 18 119
e 18 120
e 18 122
e 18 148
e 18 149
e 19 24
e 19 32
e 19 41
e 19 42
e 19 46
e 19 80
e 19 99
e 19 113
e 19 124
e 19 135
e 19 136
e 19 140
e 20 45
e 20 47
e 20 49
e 20 62
e 20 82
e 20 107
e 20 108
e 21 26
e 21 37
e 21 47
e 21 54
e 21 72
e 21 96
e 21 107
e 21 122
e 21 135
e 21 141
e 21 146
e 21 149
e 22 41
e 22 45
e 22 48
e 22 59
e 22 76
e 22 85
e 22 96
e 22 100
e 22 126
e 22 135
e 22 136
e 23 25
e 23 31
e 23 33
e 23 38
e 23 40
e 23 46
e 23 49
e 23 73
e 23 79
e 23 101
e 23 108
e 23 113
e 23 128
e 23 131
e 23 148
e 24 25
e 24 33
e 24 40
e 24 43
e 24 44
e 24 50
e 24 60
e 24 65
e 24 76
e 24 78
e 24 96
e 24 99
e 24 101
e 24 107
e 24 108
e 24 141
e 24 144
e 25 28
e 25 32
e 25 41
e 25 43
e 25 54
e 25 66
e 25 68
e 25 81
e 25 102
e 25 106
e 25 129
e 25 141
e 26 35
e 26 76
e 26 78
e 26 96
e 26 109
e 26 110
e 26 112
e 26 120
e 26 127
e 26 129
e 26 130
e 27 42
e 27 57
e 27 63
e 27 75
e 27 80
e 27 96
e 27 122
e 27 138
e 27 149
e 28 50
e 28 56
e 28 59
e 28 62
e 28 64
e 28 69
e 28 110
e 28 120
e 28 132
e 28 139
e 28 144
e 28 148
e 28 149
e 29 49
e 29 63
e 29 77
e 29 80
e 29 95
e 29 101
e 29 109
e 29 110
e 29 111
e 29 138
e 29 145
e 30 40
e 30 50
e 30 55
e 30 65
e 30 72
e 30 83
e 30 87
e 30 121
e 31 33
e 31 44
e 31 65
e 31 69
e 31 76
e 31 99
e 31 101
e 31 109
e 31 111
e 31 141
e 32 39
e 32 51
e 32 66
e 32 70
e 32 84
e 32 95
e 32 125
e 32 131
e 33 42
e 33 46
e 33 50
e 33 54
e 33 67
e 33 95
e 33 105
e 33 106
e 33 120
e 33 131
e 33 143
e 33 149
e 34 53
e 34 57
e 34 73
e 34 77
e 34 96
e 34 100
e 34 117
e 34 124
e 34 127
e 34 133
e 34 148
e 34 150
e 35 36
e 35 38
e 35 42
e 35 48
e 35 54
e 35 63
e 35 73
e 35 102
e 35 107
e 35 113
e 35 121
e 35 127
e 35 130
e 35 131
e 35 136
e 35 141
e 36 37
e 36 40
e 36 45
e 36 65
e 36 75
e 36 80
e 36 81
e 36 92
e 36 97
e 36 104
e 37 56
e 37 60
e 37 91
e 37 96
e 37 100
e 37 110
e 37 111
e 37 113
e 37 117
e 37 122
e 37 139
e 37 146
e 38 43
e 38 49
e 38 53
e 38 56
e 38 106
e 38 111
e 38 116
e 38 123
e 38 130
e 38 141
e 39 40
e 39 43
e 39 44
e 39 62
e 39 68
e 39 79
e 39 92
e 39 97
e 39 101
e 39 102
e 39 105
e 39 107
e 39 124
e 39 129
e 39 131
e 39 135
e 39 136
e 39 140
e 40 59
e 40 65
e 40 79
e 40 91
e 40 108
e 40 111
e 40 128
e 40 148
e 41 46
e 41 51
e 41 78
e 41 86
e 41 88
e 41 98
e 41 116
e 41 117
e 41 118
e 41 132
e 41 141
e 41 142
e 41 143
e 42 45
e 42 47
e 42 53
e 42 79
e 42 85
e 42 87
e 42 88
e 42 89
e 42 90
e 42 91
e 42 96
e 42 97
e 42 104
e 42 117
e 42 133
e 43 51
e 43 53
e 43 72
e 43 75
e 43 81
e 43 85
e 43 90
e 43 102
e 43 106
e 43 110
e 43 115
e 43 139
e 44 70
e 44 72
e 44 100
e 44 101
e 44 107
e 44 115
e 44 118
e 44 128
e 44 137
e 44 150
e 45 56
e 45 62
e 45 81
e 45 85
e 45 95
e 45 101
e 45 103
e 45 104
e 45 105
e 45 124
e 45 126
e 45 128
e 45 130
e 45 138
e 45 139
e 46 50
e 46 64
e 46 68
e 46 96
e 46 108
e 46 111
e 46 113
e 46 129
e 46 131
e 46 143
e 47 51
e 47 58
e 47 61
e 47 74
e 47 76
e 47 85
e 47 89
e 47 91
e 47 93
e 47 96
e 47 112
e 47 132
e 47 141
e 47 147
e 47 148
e 48 55
e 48 57
e 48 59
e 48 74
e 48 86
e 48 88
e 48 98
e 48 105
e 48 113
e 48 115
e 48 121
e 48 125
e 48 148
e 49 56
e 49 73
e 49 94
e 49 126
e 49 127
e 49 128
e 49 138
e 50 54
e 50 56
e 50 78
e 50 92
e 50 110
e 50 115
e 50 121
e 50 144
e 51 61
e 51 67
e 51 70
e 51 71
e 51 74
e 51 77
e 51 78
e 51 81
e 51 110
e 51 127
e 51 133
e 51 139
e 51 143
e 51 145
e 52 59
e 52 64
e 52 89
e 52 101
e 52 115
e 52 122
e 52 123
e 53 58
e 53 63
e 53 71
e 53 77
e 53 82
e 53 83
e 53 87
e 53 89
e 53 98
e 53 101
e 53 120
e 53 125
e 53 132
e 54 63
e 54 71
e 54 80
e 54 90
e 54 110
e 54 116
e 54 150
e 55 64
e 55 66
e 55 92
e 55 101
e 55 116
e 55 139
e 55 145
e 56 61
e 56 75
e 56 81
e 56 87
e 56 100
e 56 103
e 56 108
e 57 64
e 57 75
e 57 106
e 57 112
e 57 113
e 57 128
e 58 61
e 58 63
e 58 72
e 58 86
e 58 92
e 58 114
e 58 116
e 58 124
e 58 143
e 58 149
e 59 63
e 59 75
e 59 77
e 59 87
e 59 91
e 59 140
e 59 145
e 59 149
e 60 71
e 60 87
e 60 93
e 60 113
e 60 115
e 60 118
e 60 119
e 60 125
e 60 128
e 60 140
e 60 142
e 60 143
e 61 63
e 61 69
e 61 79
e 61 88
e 61 116
e 61 123
e 61 126
e 61 129
e 62 69
e 62 78
e 62 87
e 62 98
e 62 107
e 62 117
e 62 129
e 62 136
e 63 69
e 63 93
e 63 101
e 63 117
e 63 123
e 63 131
e 63 147
e 63 148
e 63 149
e 64 68
e 64 69
e 64 74
e 64 77
e 64 78
e 64 120
e 64 127
e 64 128
e 64 129
e 64 133
e 64 136
e 64 139
e 64 147
e 64 150
e 65 70
e 65 75
e 65 101
e 65 128
e 65 132
e 65 136
e 66 73
e 66 80
e 66 84
e 66 85
e 66 96
e 66 117
e 66 123
e 66 126
e 66 131
e 66 139
e 66 144
e 66 146
e 67 70
e 67 75
e 67 87
e 67 98
e 67 100
e 67 102
e 67 105
e 67 107
e 67 108
e 67 113
e 67 120
e 67 123
e 67 124
e 67 130
e 67 133
e 67 139
e 67 141
e 67 146
e 68 72
e 68 90
e 68 98
e 68 102
e 68 111
e 68 116
e 68 117
e 68 148
e 69 75
e 69 77
e 69 83
e 69 91
e 69 98
e 69 116
e 69 117
e 69 125
e 69 132
e 70 86
e 70 92
e 70 95
e 70 104
e 70 123
e 70 130
e 70 148
e 71 75
e 71 78
e 71 83
e 71 87
e 71 90
e 71 94
e 71 106
e 71 121
e 71 134
e 72 99
e 72 101
e 72 120
e 72 123
e 73 85
e 73 90
e 73 92
e 73 94
e 73 103
e 73 117
e 73 121
e 73 126
e 74 96
e 74 103
e 74 111
e 74 118
e 74 123
e 74 150
e 75 78
e 75 92
e 75 108
e 75 119
e 75 124
e 75 131
e 75 139
e 75 150
e 76 83
e 76 94
e 76 96
e 76 98
e 76 100
e 76 128
e 76 136
e 76 149
e 77 81
e 77 85
e 77 108
e 77 113
e 77 118
e 77 121
e 77 125
e 77 135
e 77 140
e 77 144
e 78 79
e 78 92
e 78 104
e 78 107
e 78 119
e 78 121
e 78 132
e 79 81
e 79 89
e 79 115
e 79 121
e 79 134
e 79 137
e 79 148
e 79 150
e 80 81
e 80 83
e 80 85
e 80 94
e 80 120
e 80 129
e 80 138
e 81 86
e 81 94
e 81 96
e 81 116
e 81 119
e 81 120
e 81 134
e 81 150
e 82 97
e 82 102
e 82 107
e 82 116
e 82 122
e 82 142
e 82 143
e 83 86
e 83 106
e 83 113
e 83 121
e 83 130
e 83 131
e 83 135
e 83 149
e 84 94
e 84 96
e 84 116
e 84 134
e 85 96
e 85 108
e 85 111
e 85 115
e 85 119
e 85 128
e 85 149
e 86 110
e 86 113
e 86 115
e 86 117
e 86 125
e 86 129
e 86 130
e 86 136
e 86 139
e 86 140
e 87 94
e 87 102
e 87 117
e 87 138
e 87 146
e 87 148
e 88 92
e 88 96
e 88 121
e 88 124
e 88 128
e 88 138
e 88 141
e 89 99
e 89 110
e 89 125
e 89 137
e 89 139
e 90 114
e 90 119
e 90 122
e 90 124
e 90 126
e 90 130
e 90 131
e 90 133
e 90 137
e 91 93
e 91 107
e 91 120
e 91 130
e 91 148
e 92 97
e 92 109
e 92 113
e 92 115
e 92 138
e 92 139
e 92 148
e 93 95
e 93 101
e 93 121
e 93 132
e 93 136
e 94 97
e 94 113
e 94 114
e 94 117
e 94 128
e 94 133
e 95 117
e 95 118
e 95 139
e 96 115
e 96 125
e 96 126
e 96 130
e 96 131
e 96 141
e 97 102
e 97 111
e 97 114
e 97 126
e 97 129
e 97 139
e 98 103
e 98 140
e 99 102
e 99 106
e 99 123
e 99 127
e 99 133
e 99 141
e 100 105
e 100 129
e 100 132
e 100 146
e 101 121
e 101 131
e 101 135
e 102 103
e 102 115
e 102 116
e 102 123
e 102 135
e 103 141
e 104 108
e 104 115
e 104 144
e 104 145
e 104 148
e 105 126
e 105 132
e 105 137
e 106 112
e 106 125
e 106 129
e 106 134
e 106 137
e 106 142
e 107 125
e 107 135
e 107 136
e 107 137
e 107 138
e 107 149
e 107 150
e 108 112
e 108 130
e 108 137
e 109 111
e 109 126
e 109 137
e 110 112
e 110 123
e 110 125
e 110 128
e 110 145
e 110 150
e 111 123
e 111 126
e 111 134
e 111 141
e 111 146
e 112 133
e 112 140
e 113 126
e 113 149
e 114 117
e 114 120
e 114 122
e 114 128
e 114 139
e 114 140
e 115 119
e 115 124
e 115 132
e 115 141
e 115 149
e 116 125
e 116 132
e 116 146
e 117 122
e 117 133
e 117 139
e 117 141
e 117 144
e 117 146
e 118 128
e 118 140
e 119 123
e 119 124
e 119 131
e 119 132
e 119 143
e 119 146
e 120 124
e 120 129
e 120 139
e 120 142
e 120 146
e 121 122
e 121 136
e 121 144
e 122 130
e 122 136
e 122 139
e 123 125
e 123 138
e 124 126
e 124 140
e 125 147
e 125 148
e 126 132
e 126 146
e 127 128
e 127 133
e 127 145
e 128 149
e 129 135
e 129 140
e 130 134
e 130 137
e 131 144
e 133 141
e 133 142
e 133 147
e 135 145
e 136 139
e 137 140
e 137 142
e 138 149
e 139 146
e 142 144
e 144 147
e 144 148
e 144 149
e 144 150
e 145 147
